files/upTests/_matrixes/setMinSizeMuti/0004.eprime
language ESSENCE' 1.0

find m_SetOccurrence:
        matrix indexed by [int(4, 5), int(10, 11), int(6..8)] of bool
such that
    forAll v__0 : int(4, 5)
        . (forAll v__1 : int(10, 11)
               . (sum v__2 : int(6..8) . m_SetOccurrence[v__0, v__1, v__2]) >= 1
                 /\
                 (sum v__2 : int(6..8) . m_SetOccurrence[v__0, v__1, v__2]) <= 3)
