files/upTests/_matrixes/setMinSizeMuti/0004.eprime.solution
language ESSENCE' 1.0
$ minion Nodes: 9
$ minion TotalTime: 0.000633
$ Savile Row TotalTime: 0.201
letting m_SetOccurrence be [[[false, false, true;int(6..8)], 
[false, false, true;int(6..8)];int(10,11)], 
[[false, false, true;int(6..8)], 
[false, false, true;int(6..8)];int(10,11)];int(4,5)]
